c FILE /home/rafael/Documents/HappySet/MIHS/inputs/happygen/output/graph_scale_free_k3_p0.5_v100_20241127_083818.txt
c SOURCE This is a scale-free graph formed for the happy graph colouring problem.
c DESCRIPTION It was generated using the problem generator of Rhyd Lewis
c
c GRAPH STATS
c Seed                             = 373450921
c Number of Nodes                  = 100
c Number of colours k              = 3
c Number of pre-assignments        = 50
c Number of links per new node     = 5
c Density                          = 0.0979798
c 
c The degrees of nodes 1 to 100, respectively, are as follows 
c [31, 27, 27, 27, 27, 26, 23, 22, 21, 20, 20, 20, 18, 17, 16, 16, 16, 14, 13, 13, 13, 12, 11, 11, 10, 10, 
c  10, 10, 10, 10, 9, 9, 9, 9, 9, 9, 9, 9, 9, 9, 9, 8, 8, 8, 8, 8, 8, 7, 7, 7, 7, 
c  7, 7, 7, 7, 7, 7, 7, 6, 6, 6, 6, 6, 6, 6, 6, 6, 6, 6, 6, 6, 6, 6, 5, 5, 5, 
c  5, 5, 5, 5, 5, 5, 5, 5, 5, 5, 5, 5, 5, 5, 5, 5, 5, 5, 5, 5, 5, 5, 5, 5] 
c  
p edge 100 485 3
e 1 2
e 1 3
e 1 4
e 1 5
e 1 6
e 1 9
e 1 15
e 1 16
e 1 17
e 1 20
e 1 21
e 1 23
e 1 24
e 1 27
e 1 29
e 1 32
e 1 34
e 1 35
e 1 38
e 1 46
e 1 48
e 1 49
e 1 52
e 1 55
e 1 56
e 1 72
e 1 78
e 1 86
e 1 88
e 1 91
e 1 96
e 2 3
e 2 4
e 2 5
e 2 6
e 2 7
e 2 8
e 2 9
e 2 11
e 2 14
e 2 16
e 2 18
e 2 23
e 2 24
e 2 25
e 2 26
e 2 39
e 2 42
e 2 46
e 2 48
e 2 61
e 2 69
e 2 82
e 2 83
e 2 95
e 2 96
e 2 98
e 3 4
e 3 5
e 3 6
e 3 7
e 3 8
e 3 9
e 3 10
e 3 12
e 3 13
e 3 17
e 3 21
e 3 22
e 3 23
e 3 24
e 3 25
e 3 26
e 3 27
e 3 49
e 3 57
e 3 73
e 3 78
e 3 83
e 3 85
e 3 88
e 3 97
e 4 5
e 4 6
e 4 7
e 4 8
e 4 9
e 4 15
e 4 25
e 4 26
e 4 27
e 4 30
e 4 31
e 4 32
e 4 35
e 4 40
e 4 45
e 4 58
e 4 59
e 4 61
e 4 62
e 4 87
e 4 88
e 4 89
e 4 95
e 4 99
e 5 7
e 5 8
e 5 9
e 5 10
e 5 12
e 5 15
e 5 16
e 5 19
e 5 25
e 5 28
e 5 29
e 5 41
e 5 43
e 5 54
e 5 59
e 5 60
e 5 64
e 5 74
e 5 76
e 5 80
e 5 90
e 5 93
e 5 94
e 6 8
e 6 9
e 6 10
e 6 11
e 6 12
e 6 15
e 6 16
e 6 19
e 6 20
e 6 31
e 6 33
e 6 38
e 6 40
e 6 44
e 6 49
e 6 50
e 6 53
e 6 63
e 6 68
e 6 69
e 6 74
e 6 84
e 7 10
e 7 11
e 7 14
e 7 17
e 7 29
e 7 33
e 7 36
e 7 44
e 7 48
e 7 49
e 7 51
e 7 59
e 7 60
e 7 70
e 7 79
e 7 85
e 7 86
e 7 96
e 7 98
e 8 13
e 8 14
e 8 17
e 8 18
e 8 21
e 8 22
e 8 27
e 8 33
e 8 35
e 8 42
e 8 50
e 8 55
e 8 60
e 8 63
e 8 66
e 8 73
e 8 87
e 9 10
e 9 12
e 9 15
e 9 17
e 9 22
e 9 23
e 9 28
e 9 31
e 9 37
e 9 38
e 9 48
e 9 52
e 9 57
e 9 62
e 9 64
e 10 14
e 10 15
e 10 16
e 10 20
e 10 23
e 10 25
e 10 31
e 10 39
e 10 44
e 10 59
e 10 60
e 10 61
e 10 67
e 10 94
e 10 100
e 11 14
e 11 15
e 11 19
e 11 24
e 11 25
e 11 33
e 11 34
e 11 39
e 11 43
e 11 46
e 11 52
e 11 56
e 11 72
e 11 74
e 11 83
e 11 89
e 11 90
e 12 16
e 12 30
e 12 36
e 12 37
e 12 40
e 12 49
e 12 51
e 12 57
e 12 61
e 12 62
e 12 63
e 12 71
e 12 77
e 12 81
e 12 83
e 12 98
e 13 18
e 13 19
e 13 21
e 13 28
e 13 37
e 13 41
e 13 44
e 13 45
e 13 47
e 13 62
e 13 63
e 13 67
e 13 71
e 13 73
e 13 75
e 13 77
e 14 18
e 14 19
e 14 22
e 14 28
e 14 32
e 14 34
e 14 42
e 14 77
e 14 82
e 14 88
e 14 94
e 14 99
e 15 28
e 15 29
e 15 31
e 15 34
e 15 36
e 15 42
e 15 64
e 15 67
e 15 68
e 16 18
e 16 27
e 16 43
e 16 44
e 16 56
e 16 62
e 16 64
e 16 70
e 16 74
e 16 75
e 17 20
e 17 26
e 17 28
e 17 33
e 17 36
e 17 42
e 17 50
e 17 55
e 17 58
e 17 65
e 17 76
e 18 19
e 18 21
e 18 31
e 18 32
e 18 47
e 18 58
e 18 66
e 18 71
e 18 81
e 19 41
e 19 54
e 19 58
e 19 66
e 19 72
e 19 90
e 19 95
e 20 43
e 20 46
e 20 63
e 20 64
e 20 68
e 20 74
e 20 75
e 20 84
e 20 85
e 21 40
e 21 51
e 21 54
e 21 66
e 21 78
e 21 81
e 21 84
e 21 85
e 22 23
e 22 39
e 22 51
e 22 55
e 22 68
e 22 84
e 22 93
e 22 96
e 23 26
e 23 32
e 23 50
e 23 79
e 23 91
e 24 28
e 24 53
e 24 54
e 24 56
e 24 61
e 24 75
e 24 87
e 25 38
e 25 43
e 25 75
e 25 79
e 26 37
e 26 72
e 26 79
e 26 82
e 26 85
e 27 36
e 27 37
e 27 43
e 27 60
e 27 70
e 28 45
e 28 80
e 28 89
e 29 33
e 29 48
e 29 51
e 29 71
e 29 76
e 29 81
e 30 31
e 30 33
e 30 41
e 30 48
e 30 82
e 30 87
e 30 91
e 30 97
e 31 59
e 31 77
e 32 34
e 32 35
e 32 50
e 32 54
e 33 47
e 33 87
e 34 35
e 34 45
e 34 52
e 34 100
e 35 39
e 35 47
e 35 81
e 35 83
e 36 38
e 36 53
e 36 55
e 36 76
e 37 40
e 37 47
e 37 86
e 37 100
e 38 73
e 38 82
e 38 92
e 38 95
e 39 66
e 39 69
e 39 70
e 39 80
e 40 56
e 40 57
e 40 97
e 40 100
e 41 54
e 41 57
e 41 88
e 41 92
e 41 99
e 42 45
e 42 92
e 42 95
e 43 46
e 43 65
e 44 52
e 44 68
e 44 91
e 45 92
e 45 96
e 45 97
e 46 67
e 46 80
e 46 93
e 47 58
e 47 92
e 47 100
e 48 76
e 49 70
e 49 79
e 50 78
e 50 80
e 51 53
e 51 65
e 52 53
e 52 84
e 53 65
e 53 90
e 54 67
e 55 72
e 55 94
e 56 86
e 56 93
e 57 86
e 57 94
e 58 69
e 58 71
e 59 93
e 60 65
e 61 77
e 62 78
e 63 73
e 64 89
e 65 69
e 66 99
e 67 91
e 68 98
e 69 90
e 70 98
e 71 89
e 72 99
e 73 97
n 8 3
n 10 3
n 19 2
n 28 1
n 31 3
n 32 1
n 34 1
n 37 2
n 38 3
n 40 2
n 42 3
n 43 1
n 44 3
n 46 1
n 47 2
n 48 1
n 49 1
n 51 1
n 53 1
n 56 2
n 61 3
n 62 3
n 63 3
n 64 1
n 65 1
n 69 1
n 70 1
n 71 1
n 72 2
n 74 1
n 75 2
n 76 1
n 77 3
n 78 3
n 79 1
n 80 1
n 81 3
n 82 3
n 83 3
n 84 1
n 85 1
n 86 2
n 87 3
n 88 2
n 89 1
n 94 3
n 96 1
n 97 2
n 98 1
n 99 2
